NAME: I15511-n20-k3
COMMENT : (Fake et al, No of trucks: 3, Optimal value: )
TYPE : CVRP
DIMENSION : 20
EDGE_WEIGHT_TYPE : EUC_2D
CAPACITY : 38
NODE_COORD_SECTION
1 671 7
2 509 133
3 557 31
4 68 997
5 996 147
6 186 33
7 92 350
8 619 747
9 282 112
10 177 26
11 721 241
12 76 75
13 358 213
14 566 548
15 924 767
16 48 56
17 644 714
18 564 241
19 677 333
20 911 89
DEMAND_SECTION
1 0
2 7
3 7
4 4
5 5
6 1
7 3
8 8
9 6
10 6
11 5
12 5
13 1
14 6
15 8
16 7
17 5
18 5
19 3
20 8
DEPOT_SECTION
 1
 -1
 EOF 